objective value:                                 -233
t_x19                                               1 	(obj:-100)
t_x78                                               1 	(obj:-100)
t_x255                                              1 	(obj:-100)
t_y96_255                                           1 	(obj:1)
t_y73_78                                            1 	(obj:1)
t_y255_268                                          1 	(obj:1)
t_y19_124                                           1 	(obj:1)
t_y19_34                                            1 	(obj:1)
t_y36_255                                           1 	(obj:1)
t_y78_112                                           1 	(obj:1)
t_y78_227                                           1 	(obj:1)
t_y22_255                                           1 	(obj:1)
t_y49_255                                           1 	(obj:1)
t_y48_255                                           1 	(obj:1)
t_y78_201                                           1 	(obj:1)
t_y78_208                                           1 	(obj:1)
t_y19_113                                           1 	(obj:1)
t_y78_189                                           1 	(obj:1)
t_y8_255                                            1 	(obj:1)
t_y1_255                                            1 	(obj:1)
t_y19_169                                           1 	(obj:1)
t_y9_19                                             1 	(obj:1)
t_y78_245                                           1 	(obj:1)
t_y15_19                                            1 	(obj:1)
t_y217_255                                          1 	(obj:1)
t_y78_298                                           1 	(obj:1)
t_y19_267                                           1 	(obj:1)
t_y2_19                                             1 	(obj:1)
t_y19_295                                           1 	(obj:1)
t_y58_255                                           1 	(obj:1)
t_y78_250                                           1 	(obj:1)
t_y198_255                                          1 	(obj:1)
t_y19_238                                           1 	(obj:1)
t_y78_230                                           1 	(obj:1)
t_y10_78                                            1 	(obj:1)
t_y39_255                                           1 	(obj:1)
t_y19_86                                            1 	(obj:1)
t_y19_114                                           1 	(obj:1)
t_y78_222                                           1 	(obj:1)
t_y19_227                                           1 	(obj:1)
t_y255_264                                          1 	(obj:1)
t_y21_78                                            1 	(obj:1)
t_y19_255                                           1 	(obj:1)
t_y1_19                                             1 	(obj:1)
t_y78_99                                            1 	(obj:1)
t_y19_170                                           1 	(obj:1)
t_y78_241                                           1 	(obj:1)
t_y19_193                                           1 	(obj:1)
t_y78_195                                           1 	(obj:1)
t_y19_207                                           1 	(obj:1)
t_y221_255                                          1 	(obj:1)
t_y55_78                                            1 	(obj:1)
t_y19_240                                           1 	(obj:1)
t_y115_255                                          1 	(obj:1)
t_y78_157                                           1 	(obj:1)
t_y78_239                                           1 	(obj:1)
t_y19_291                                           1 	(obj:1)
t_y78_88                                            1 	(obj:1)
t_y19_206                                           1 	(obj:1)
t_y11_78                                            1 	(obj:1)
t_y78_180                                           1 	(obj:1)
t_y19_125                                           1 	(obj:1)
t_y255_266                                          1 	(obj:1)
t_y133_255                                          1 	(obj:1)
t_y31_78                                            1 	(obj:1)
t_y46_78                                            1 	(obj:1)
t_y123_255                                          1 	(obj:1)
t_y19_172                                           1 	(obj:1)
t_y27_255                                           1 	(obj:1)
t_y19_82                                            1 	(obj:1)
